1608
1223
6659
1724
10015
6278
3122
8191
7958
5480
7709
5737
5569
4603
2008
9692
8780
6790
4870
1928
1010
3136
662
3851
9336
6026
1829
8303
6761
2977
5189
6504
400
2508
5378
1310
3733
764
9913
3916
7351
3986
2576
8606
5130
2274
4062
8446
9057
3872
6920
